NAME: tsp_169
COMMENT: Random TSP instance
TYPE: TSP
DIMENSION: 50
EDGE_WEIGHT_TYPE: EUC_2D
NODE_COORD_SECTION
1 925 90
2 698 786
3 433 771
4 420 877
5 398 37
6 785 119
7 341 269
8 859 162
9 128 515
10 794 340
11 616 93
12 205 896
13 40 267
14 404 944
15 996 647
16 917 211
17 28 541
18 183 387
19 846 361
20 904 299
21 454 316
22 593 385
23 393 457
24 848 356
25 790 536
26 971 154
27 120 287
28 342 560
29 860 121
30 818 852
31 305 709
32 690 974
33 475 117
34 557 475
35 103 517
36 588 836
37 315 80
38 512 396
39 941 54
40 333 906
41 453 339
42 572 694
43 785 912
44 479 752
45 602 79
46 917 501
47 776 483
48 347 504
49 271 747
50 237 90
